\* Problem: Unknown *\

Maximize
 obj: + xp_0_0 + xp_1_0 + xp_1_1 + xp_2_0 + xp_3_0 + xp_4_0 + xp_5_0
 + xp_6_0 + xp_7_0 + xp_8_0 + xp_9_0 + xp_9_1 + xp_10_0 + xp_11_0
 + xp_11_1 + xp_12_0 + xp_12_1 + xp_13_0 + xp_14_0 + xp_14_1 + xp_15_0
 + xp_16_0 + xp_17_0 + xp_17_1 + xp_18_0 + xp_18_1 + xp_19_0 + xp_19_1
 + xp_20_0 + xp_21_0 + xp_22_0 + xp_22_1 + xp_23_0 + xp_24_0 + xp_24_1
 + xp_25_0 + xp_26_0 + xp_27_0 + xp_28_0 + xp_28_1 + xp_29_0 + xp_30_0
 + xp_31_0 + xp_32_0 + xp_33_0 + xp_34_0 + xp_34_1 + xp_35_0 + xp_36_0
 + xp_37_0 + xp_38_0 + xp_39_0 + xp_40_0 + xp_41_0 + xp_42_0 + xp_42_1
 + xp_42_2 + xp_43_0 + xp_44_0 + xp_45_0 + xp_46_0 + xp_47_0 + xp_48_0
 + xp_49_0 + xp_50_0 + xp_50_1 + xp_51_0 + xp_52_0 + xp_53_0 + xp_54_0
 + xp_55_0 + xp_56_0 + xp_57_0 + xp_58_0 + xp_58_1 + xp_59_0 + xp_60_0
 + xp_60_1 + xp_61_0 + xp_61_1 + xp_62_0 + xp_63_0 + xp_63_1 + xp_64_0
 + xp_65_0 + xp_65_1 + xp_66_0 + xp_67_0 + xp_68_0 + xp_68_1 + xp_68_2
 + xp_69_0 + xp_70_0 + xp_71_0 + xp_72_0 + xp_73_0 + xp_74_0 + xp_75_0
 + xp_76_0 + xp_77_0 + xp_78_0 + xp_78_1 + xp_78_2 + xp_79_0 + xp_79_1
 + xp_79_2 + xp_80_0 + xp_80_1 + xp_81_0 + xp_82_0 + xp_83_0 + xp_84_0
 + xp_85_0 + xp_86_0 + xp_86_1 + xp_87_0 + xp_88_0 + xp_89_0 + xp_90_0
 + xp_90_1 + xp_91_0 + xp_91_1 + xp_91_2 + xp_92_0 + xp_93_0 + xp_94_0
 + xp_95_0 + xp_96_0 + xp_97_0 + xp_98_0 + xp_99_0 + xp_100_0 + xp_101_0
 + xp_102_0 + xp_103_0 + xp_104_0 + xp_105_0 + xp_106_0 + xp_107_0
 + xp_108_0 + xp_108_1 + xp_108_2 + xp_109_0 + xp_109_1 + xp_110_0
 + xp_111_0 + xp_112_0 + xp_113_0 + xp_114_0 + xp_115_0 + xp_116_0
 + xp_116_1 + xp_117_0 + xp_118_0 + xp_119_0 + xp_120_0 + xp_120_1
 + xp_121_0 + xp_122_0 + xp_123_0 + xp_124_0 + xp_125_0 + xp_125_1
 + xp_126_0 + xp_126_1 + xp_126_2 + xp_126_3 + xp_127_0 + xp_127_1
 + xp_128_0 + xp_128_1 + xp_129_0 + xp_129_1 + xp_130_0 + xp_131_0
 + xp_131_1 + xp_131_2

Subject To
 r_1: + xp_128_1 + xp_122_0 + xp_121_0 + xp_108_2 + xp_107_0 + xp_78_2
 + xp_25_0 + xp_22_1 + xp_18_0 + xp_16_0 + xp_4_0 <= 39820.1058201058
 r_2: + xp_131_2 + xp_131_1 + xp_127_1 + xp_126_1 + xp_120_0 + xp_93_0
 + xp_90_1 + xp_85_0 + xp_75_0 + xp_71_0 + xp_66_0 + xp_65_1 + xp_65_0
 + xp_61_1 + xp_55_0 + xp_52_0 + xp_48_0 + xp_42_2 + xp_42_1 + xp_32_0
 + xp_28_1 + xp_28_0 + xp_24_0 + xp_19_1 + xp_19_0 + xp_12_1 + xp_1_1
 <= 35876.7054067711
 r_3: + xp_114_0 + xp_95_0 + xp_91_1 + xp_79_1 + xp_76_0 + xp_34_0
 <= 40000
 r_4: + xp_117_0 + xp_91_2 + xp_91_0 + xp_84_0 + xp_79_2 + xp_79_0
 + xp_46_0 + xp_43_0 + xp_40_0 + xp_34_1 <= 38895.0789229341
 r_5: + xp_130_0 + xp_99_0 + xp_86_0 + xp_65_1 + xp_7_0 + xp_2_0
 <= 40000
 r_6: + xp_126_2 + xp_119_0 + xp_114_0 + xp_95_0 + xp_91_1 + xp_83_0
 + xp_81_0 + xp_79_1 + xp_70_0 + xp_68_1 + xp_58_1 + xp_53_0 + xp_45_0
 + xp_34_0 + xp_18_0 <= 40000
 r_7: + xp_104_0 + xp_88_0 + xp_82_0 + xp_78_1 + xp_50_1 + xp_44_0
 + xp_27_0 + xp_18_1 <= 38895.0789229341
 r_8: + xp_131_2 + xp_131_1 + xp_127_1 + xp_126_1 + xp_120_0 + xp_118_0
 + xp_103_0 + xp_90_1 + xp_71_0 + xp_61_1 + xp_55_0 + xp_42_2 + xp_42_1
 + xp_32_0 + xp_24_0 + xp_12_1 + xp_1_1 <= 39820.1058201058
 r_9: + xp_131_0 + xp_127_0 + xp_122_0 + xp_120_1 + xp_108_2 + xp_78_2
 + xp_77_0 + xp_42_0 + xp_33_0 + xp_24_1 <= 40000
 r_10: + xp_106_0 + xp_99_0 + xp_98_0 + xp_88_0 + xp_86_0 + xp_85_0
 + xp_78_1 + xp_65_1 + xp_50_1 + xp_26_0 + xp_24_0 + xp_8_0 + xp_7_0
 + xp_2_0 <= 40000
 r_11: + xp_119_0 + xp_112_0 + xp_111_0 + xp_95_0 + xp_91_1 + xp_81_0
 + xp_79_1 + xp_78_2 + xp_78_0 + xp_59_0 + xp_53_0 + xp_50_0 + xp_49_0
 + xp_45_0 + xp_34_0 + xp_18_0 + xp_4_0 + xp_3_0 <= 37043.4782608696
 r_12: + xp_129_0 + xp_128_0 + xp_123_0 + xp_117_0 + xp_108_1 + xp_101_0
 + xp_91_2 + xp_82_0 + xp_80_1 + xp_79_2 + xp_78_1 + xp_78_0 + xp_73_0
 + xp_63_1 + xp_60_0 + xp_50_1 + xp_46_0 + xp_44_0 + xp_40_0 + xp_18_1
 + xp_17_1 + xp_15_0 + xp_14_1 + xp_13_0 + xp_9_0 <= 37114.7318397828
 r_13: + xp_129_1 + xp_128_1 + xp_126_3 + xp_120_1 + xp_109_1 + xp_100_0
 + xp_91_0 + xp_90_0 + xp_80_0 + xp_79_0 + xp_68_0 + xp_63_0 + xp_60_1
 + xp_34_1 + xp_31_0 + xp_30_0 + xp_17_0 + xp_9_1 <= 37043.4782608696
 r_14: + xp_131_2 + xp_131_1 + xp_131_0 + xp_126_2 + xp_125_1 + xp_125_0
 + xp_124_0 + xp_115_0 + xp_94_0 + xp_86_1 + xp_77_0 + xp_68_1 + xp_65_0
 + xp_58_1 + xp_56_0 + xp_51_0 + xp_41_0 + xp_38_0 + xp_35_0 + xp_24_1
 + xp_20_0 + xp_19_1 + xp_19_0 + xp_12_1 + xp_12_0 + xp_0_0
 <= 38895.0789229341
 r_15: + xp_131_2 + xp_131_0 + xp_126_3 + xp_126_2 + xp_125_0 + xp_124_0
 + xp_120_1 + xp_116_0 + xp_115_0 + xp_109_1 + xp_94_0 + xp_90_0
 + xp_89_0 + xp_86_1 + xp_77_0 + xp_68_1 + xp_68_0 + xp_65_0 + xp_58_1
 + xp_51_0 + xp_42_2 + xp_42_0 + xp_38_0 + xp_36_0 + xp_28_1 + xp_24_1
 + xp_19_1 + xp_12_0 + xp_11_0 + xp_0_0 <= 37114.7318397828
 r_16: + xp_128_0 + xp_123_0 + xp_108_1 + xp_108_0 + xp_78_1 + xp_78_0
 + xp_73_0 + xp_67_0 + xp_57_0 + xp_46_0 + xp_44_0 + xp_40_0 + xp_22_0
 + xp_18_1 + xp_13_0 + xp_6_0 <= 37114.7318397828
 r_17: + xp_129_0 + xp_126_0 + xp_109_0 + xp_97_0 + xp_91_2 + xp_80_1
 + xp_79_2 + xp_68_2 + xp_63_1 + xp_62_0 + xp_61_0 + xp_60_0 + xp_47_0
 + xp_22_1 + xp_17_1 + xp_9_0 + xp_1_0 <= 35876.7054067711
 r_18: + xp_126_3 + xp_126_1 + xp_126_0 + xp_106_0 + xp_99_0 + xp_98_0
 + xp_92_0 + xp_86_0 + xp_85_0 + xp_68_2 + xp_68_0 + xp_65_1 + xp_58_0
 + xp_48_0 + xp_32_0 + xp_30_0 + xp_26_0 + xp_24_0 + xp_5_0 + xp_2_0
 <= 37043.4782608696
 r_19: + xp_131_1 + xp_125_1 + xp_116_1 + xp_110_0 + xp_108_1 + xp_78_0
 + xp_56_0 + xp_42_1 + xp_28_0 + xp_19_0 + xp_14_1 + xp_12_1 + xp_11_1
 + xp_3_0 <= 37043.4782608696
 r_20: + xp_129_1 + xp_128_1 + xp_119_0 + xp_112_0 + xp_111_0 + xp_108_2
 + xp_108_0 + xp_107_0 + xp_95_0 + xp_91_1 + xp_91_0 + xp_81_0 + xp_80_0
 + xp_79_1 + xp_79_0 + xp_78_2 + xp_69_0 + xp_64_0 + xp_63_0 + xp_60_1
 + xp_50_0 + xp_49_0 + xp_45_0 + xp_18_0 + xp_17_0 + xp_14_0 + xp_10_0
 + xp_9_1 + xp_4_0 <= 35876.7054067711
 r_21: + xp_113_0 + xp_86_1 + xp_77_0 + xp_65_0 + xp_38_0 + xp_20_0
 + xp_0_0 <= 38895.0789229341
 r_22: + xp_126_2 + xp_124_0 + xp_105_0 + xp_94_0 + xp_83_0 + xp_68_1
 + xp_58_1 + xp_41_0 + xp_24_1 <= 38895.0789229341
 r_23: + xp_128_1 + xp_128_0 + xp_117_0 + xp_104_0 + xp_100_0 + xp_91_2
 + xp_91_0 + xp_84_0 + xp_82_0 + xp_80_1 + xp_80_0 + xp_79_2 + xp_79_0
 + xp_78_1 + xp_73_0 + xp_60_1 + xp_60_0 + xp_50_1 + xp_46_0 + xp_44_0
 + xp_40_0 + xp_34_1 + xp_21_0 + xp_18_1 + xp_15_0 + xp_9_1 + xp_9_0
 <= 38895.0789229341
 r_24: + xp_128_0 + xp_126_1 + xp_103_0 + xp_90_1 + xp_61_1 + xp_40_0
 + xp_39_0 + xp_22_0 + xp_18_1 + xp_13_0 + xp_12_1 + xp_1_1 <= 40000
 r_25: + xp_131_0 + xp_127_0 + xp_126_3 + xp_126_2 + xp_126_0 + xp_120_1
 + xp_94_0 + xp_90_0 + xp_89_0 + xp_77_0 + xp_74_0 + xp_61_0 + xp_42_0
 + xp_38_0 + xp_24_1 + xp_12_0 + xp_1_0 <= 37114.7318397828
 r_26: + xp_128_1 + xp_121_0 + xp_112_0 + xp_108_2 + xp_107_0 + xp_81_0
 + xp_79_2 + xp_79_1 + xp_79_0 + xp_78_2 + xp_64_0 + xp_60_1 + xp_60_0
 + xp_47_0 + xp_37_0 + xp_29_0 + xp_25_0 + xp_22_1 + xp_18_0 + xp_17_1
 + xp_17_0 + xp_4_0 <= 35876.7054067711
 r_27: + xp_131_2 + xp_127_1 + xp_125_0 + xp_116_0 + xp_115_0 + xp_108_0
 + xp_86_1 + xp_72_0 + xp_67_0 + xp_65_0 + xp_58_1 + xp_57_0 + xp_52_0
 + xp_50_0 + xp_42_2 + xp_28_1 + xp_23_0 + xp_19_1 + xp_14_0 + xp_11_0
 <= 35876.7054067711
 r_28: + xp_131_1 + xp_126_1 + xp_126_0 + xp_125_1 + xp_120_0 + xp_116_1
 + xp_109_0 + xp_99_0 + xp_98_0 + xp_96_0 + xp_92_0 + xp_90_1 + xp_86_0
 + xp_85_0 + xp_75_0 + xp_68_2 + xp_65_1 + xp_58_0 + xp_54_0 + xp_48_0
 + xp_42_1 + xp_32_0 + xp_28_0 + xp_26_0 + xp_24_0 + xp_19_0 + xp_12_1
 + xp_11_1 <= 35876.7054067711
 r_29: + xp_129_1 + xp_129_0 + xp_95_0 + xp_93_0 + xp_87_0 + xp_71_0
 + xp_62_0 + xp_49_0 + xp_45_0 + xp_10_0 + xp_9_1 + xp_9_0 + xp_1_1
 + xp_1_0 <= 35876.7054067711
 r_30: + xp_125_1 + xp_125_0 + xp_121_0 + xp_102_0 + xp_99_0 + xp_96_0
 + xp_92_0 + xp_57_0 + xp_37_0 + xp_26_0 + xp_23_0 + xp_11_1 + xp_11_0
 <= 35876.7054067711

Bounds
 0 <= xp_0_0 <= 225.456281319058
 0 <= xp_1_0 <= 139.556178604199
 0 <= xp_1_1 <= 34.8890446510497
 0 <= xp_2_0 <= 109.894192989317
 0 <= xp_3_0 <= 174.193316795674
 0 <= xp_4_0 <= 753.767103661397
 0 <= xp_5_0 <= 1035.14661900596
 0 <= xp_6_0 <= 1712.14522911207
 0 <= xp_7_0 <= 609.86553862954
 0 <= xp_8_0 <= 1442.54234075261
 0 <= xp_9_0 <= 82.7260813242218
 0 <= xp_9_1 <= 20.6815203310555
 0 <= xp_10_0 <= 52.3965435914682
 0 <= xp_11_0 <= 31.7402139063701
 0 <= xp_11_1 <= 7.93505347659253
 0 <= xp_12_0 <= 1580.10845832617
 0 <= xp_12_1 <= 395.027114581542
 0 <= xp_13_0 <= 240.7595987382
 0 <= xp_14_0 <= 42.030592779983
 0 <= xp_14_1 <= 168.122371119932
 0 <= xp_15_0 <= 484.542074991293
 0 <= xp_16_0 <= 2523.40998217132
 0 <= xp_17_0 <= 227.068482660334
 0 <= xp_17_1 <= 56.7671206650834
 0 <= xp_18_0 <= 137.213448530157
 0 <= xp_18_1 <= 205.820172795236
 0 <= xp_19_0 <= 606.91823305252
 0 <= xp_19_1 <= 404.612155368347
 0 <= xp_20_0 <= 122.552492582929
 0 <= xp_21_0 <= 262.297601031809
 0 <= xp_22_0 <= 941.878252348555
 0 <= xp_22_1 <= 235.469563087139
 0 <= xp_23_0 <= 49.6885491510437
 0 <= xp_24_0 <= 195.315673430985
 0 <= xp_24_1 <= 130.21044895399
 0 <= xp_25_0 <= 553.123608610415
 0 <= xp_26_0 <= 14.6735512702068
 0 <= xp_27_0 <= 322.944081174337
 0 <= xp_28_0 <= 382.771865323249
 0 <= xp_28_1 <= 255.181243548833
 0 <= xp_29_0 <= 2339.58124329693
 0 <= xp_30_0 <= 175.263919248865
 0 <= xp_31_0 <= 182.19134688716
 0 <= xp_32_0 <= 2151.72200106934
 0 <= xp_33_0 <= 7703.74037008837
 0 <= xp_34_0 <= 292.992403130945
 0 <= xp_34_1 <= 195.328268753964
 0 <= xp_35_0 <= 249.51334820841
 0 <= xp_36_0 <= 304.869792699877
 0 <= xp_37_0 <= 348.76449328071
 0 <= xp_38_0 <= 320.047156889232
 0 <= xp_39_0 <= 1504.00751688875
 0 <= xp_40_0 <= 811.705589363501
 0 <= xp_41_0 <= 76.3906338659265
 0 <= xp_42_0 <= 260.496469845852
 0 <= xp_42_1 <= 86.832156615284
 0 <= xp_42_2 <= 86.832156615284
 0 <= xp_43_0 <= 470.372336640235
 0 <= xp_44_0 <= 438.380216274291
 0 <= xp_45_0 <= 40.6828932212601
 0 <= xp_46_0 <= 1534.80308157172
 0 <= xp_47_0 <= 840.233995910298
 0 <= xp_48_0 <= 2778.46527249037
 0 <= xp_49_0 <= 84.1997341127319
 0 <= xp_50_0 <= 599.839661538481
 0 <= xp_50_1 <= 149.95991538462
 0 <= xp_51_0 <= 678.321119018874
 0 <= xp_52_0 <= 633.229862755063
 0 <= xp_53_0 <= 181.561580738224
 0 <= xp_54_0 <= 3530.909867239
 0 <= xp_55_0 <= 1133.01227855061
 0 <= xp_56_0 <= 91.5679980552821
 0 <= xp_57_0 <= 196.990851387154
 0 <= xp_58_0 <= 3477.11524279689
 0 <= xp_58_1 <= 869.278810699223
 0 <= xp_59_0 <= 10175.8244111214
 0 <= xp_60_0 <= 259.211746902023
 0 <= xp_60_1 <= 388.817620353034
 0 <= xp_61_0 <= 925.428760538349
 0 <= xp_61_1 <= 1388.14314080752
 0 <= xp_62_0 <= 125.449416868034
 0 <= xp_63_0 <= 100.812965121661
 0 <= xp_63_1 <= 25.2032412804153
 0 <= xp_64_0 <= 950.632001818764
 0 <= xp_65_0 <= 399.523644884945
 0 <= xp_65_1 <= 99.8809112212362
 0 <= xp_66_0 <= 1606.09260963127
 0 <= xp_67_0 <= 386.802368676439
 0 <= xp_68_0 <= 563.413987484027
 0 <= xp_68_1 <= 563.413987484027
 0 <= xp_68_2 <= 281.706993742014
 0 <= xp_69_0 <= 1642.99690595891
 0 <= xp_70_0 <= 603.882760214649
 0 <= xp_71_0 <= 67.7628376255045
 0 <= xp_72_0 <= 572.709335842321
 0 <= xp_73_0 <= 882.428327889005
 0 <= xp_74_0 <= 911.334594125163
 0 <= xp_75_0 <= 1686.45077023549
 0 <= xp_76_0 <= 1646.39764316316
 0 <= xp_77_0 <= 547.014876965736
 0 <= xp_78_0 <= 5352.62181094294
 0 <= xp_78_1 <= 16057.8654328288
 0 <= xp_78_2 <= 5352.62181094294
 0 <= xp_79_0 <= 611.301405449114
 0 <= xp_79_1 <= 203.767135149705
 0 <= xp_79_2 <= 203.767135149705
 0 <= xp_80_0 <= 172.505543516526
 0 <= xp_80_1 <= 43.1263858791315
 0 <= xp_81_0 <= 249.51334820841
 0 <= xp_82_0 <= 210.215940514809
 0 <= xp_83_0 <= 481.897057165762
 0 <= xp_84_0 <= 851.254903516677
 0 <= xp_85_0 <= 390.895848644523
 0 <= xp_86_0 <= 98.3946631097474
 0 <= xp_86_1 <= 65.596442073165
 0 <= xp_87_0 <= 135.147815561647
 0 <= xp_88_0 <= 406.765955597708
 0 <= xp_89_0 <= 2124.45312682042
 0 <= xp_90_0 <= 12457.013737089
 0 <= xp_90_1 <= 8304.675824726
 0 <= xp_91_0 <= 1562.03416985171
 0 <= xp_91_1 <= 520.678056617236
 0 <= xp_91_2 <= 520.678056617236
 0 <= xp_92_0 <= 63.984240731889
 0 <= xp_93_0 <= 124.819650719098
 0 <= xp_94_0 <= 226.841766846717
 0 <= xp_95_0 <= 58.6942050808273
 0 <= xp_96_0 <= 110.46098252336
 0 <= xp_97_0 <= 504.82054498703
 0 <= xp_98_0 <= 136.911160778668
 0 <= xp_99_0 <= 15.6811771085043
 0 <= xp_100_0 <= 481.708127321082
 0 <= xp_101_0 <= 239.311136595648
 0 <= xp_102_0 <= 71.7933409786943
 0 <= xp_103_0 <= 1378.93595971008
 0 <= xp_104_0 <= 126.331089476545
 0 <= xp_105_0 <= 1388.63435840369
 0 <= xp_106_0 <= 39.6752673829627
 0 <= xp_107_0 <= 430.760045872166
 0 <= xp_108_0 <= 487.930216872569
 0 <= xp_108_1 <= 162.64340562419
 0 <= xp_108_2 <= 162.64340562419
 0 <= xp_109_0 <= 555.52931529935
 0 <= xp_109_1 <= 370.352876866233
 0 <= xp_110_0 <= 127.590621774416
 0 <= xp_111_0 <= 2801.45173692653
 0 <= xp_112_0 <= 4483.74605057904
 0 <= xp_113_0 <= 407.458698361537
 0 <= xp_114_0 <= 2296.6311919395
 0 <= xp_115_0 <= 211.601426042468
 0 <= xp_116_0 <= 122.376158061227
 0 <= xp_116_1 <= 30.5940395153068
 0 <= xp_117_0 <= 1861.2738531801
 0 <= xp_118_0 <= 3021.61798259452
 0 <= xp_119_0 <= 60.1426672233799
 0 <= xp_120_0 <= 1662.48187060699
 0 <= xp_120_1 <= 415.620467651747
 0 <= xp_121_0 <= 72.3601305127367
 0 <= xp_122_0 <= 2178.80194547359
 0 <= xp_123_0 <= 492.162245393418
 0 <= xp_124_0 <= 131.873031587181
 0 <= xp_125_0 <= 20.9082361446724
 0 <= xp_125_1 <= 5.2270590361681
 0 <= xp_126_0 <= 4861.68131187846
 0 <= xp_126_1 <= 4861.68131187846
 0 <= xp_126_2 <= 9723.36262375692
 0 <= xp_126_3 <= 4861.68131187846
 0 <= xp_127_0 <= 220.997536984591
 0 <= xp_127_1 <= 331.496305476887
 0 <= xp_128_0 <= 311.205240158172
 0 <= xp_128_1 <= 77.801310039543
 0 <= xp_129_0 <= 28.1505468574354
 0 <= xp_129_1 <= 18.7670312382903
 0 <= xp_130_0 <= 386.613438831758
 0 <= xp_131_0 <= 294.151172844987
 0 <= xp_131_1 <= 294.151172844987
 0 <= xp_131_2 <= 147.075586422494

End
